c generated instance
c
p cnf 7 50
6 7 0
6 -5 -2 0
-2 6 -1 0
1 4 -3 0
-1 5 0
4 -7 0
6 3 0
-5 3 -7 1 0
5 -6 -7 0
5 -1 -4 6 0
3 6 1 4 0
-3 7 -1 -4 0
-6 0
2 -5 6 0
-2 3 0
5 4 -7 -1 0
-6 -7 0
5 -3 0
5 -7 0
-7 3 0
-1 -4 6 0
7 0
-3 4 0
-1 -5 6 4 0
7 -3 -1 5 0
-7 3 5 2 0
6 -5 -1 0
3 0
-1 7 5 -4 0
-4 3 -5 -1 0
4 6 1 0
-6 3 0
-3 -6 7 0
1 7 0
2 0
-6 7 5 -1 0
-6 -3 -1 5 0
-6 -5 -7 0
5 2 0
-4 -6 3 0
-5 6 2 0
6 0
7 5 0
-6 -2 -1 0
3 5 -6 0
5 7 3 4 0
-5 0
1 -6 -3 -4 0
6 -2 0
1 4 0
